\ENCODING=ISO-8859-1
\Problem name: ran12x21.mps

Maximize
 COST: -189 X0               + 200 X1               + 156 X2               + 119 X3               -113 X4               -31 X5               -145 X6               + 166 X7               + 82 X8               + 88 X9               + 25 X10              + 46 X11              + 110 X12              -66 X13              -159 X14              + 104 X15              + 156 X16              + 230 X17              + 5 X18              + 38 X19              + 59 X20              + 122 X21              -210 X22              -224 X23              -133 X24              -130 X25              -33 X26              + 16 X27              + 126 X28              -240 X29              -101 X30              + 200 X31              + 224 X32              + 37 X33              + 55 X34              + 93 X35              -258 X36              + 174 X37              -5 X38              + 87 X39              + 244 X40              + 2 X41              + 115 X42              + 90 X43              + 199 X44              + 219 X45              + 177 X46              + 92 X47              + 185 X48              -82 X49              -134 X50              -19 X51              + 22 X52              + 165 X53              + 20 X54              -129 X55              -228 X56              -31 X57              + 150 X58              + 161 X59              -7 X60              + 31 X61              -184 X62              + 199 X63              -196 X64              + 134 X65              + 28 X66              -191 X67              -237 X68              -241 X69              -122 X70              -257 X71              + 24 X72              + 257 X73              -184 X74              + 206 X75              -69 X76              + 256 X77              + 34 X78              -147 X79              + 156 X80              -118 X81              -184 X82              + 160 X83              + 29 X84              -182 X85              -233 X86              + 64 X87              + 50 X88              -101 X89              + 207 X90              + 25 X91              + 193 X92              -241 X93              -40 X94              + 260 X95              -124 X96              + 251 X97              + 51 X98              -98 X99              -8 X100             -89 X101             + 155 X102             -1 X103             -96 X104             + 234 X105             -59 X106             + 99 X107             -55 X108             -43 X109             -66 X110             + 83 X111             + 102 X112             + 259 X113             -21 X114             + 113 X115             + 59 X116             + 9 X117             -86 X118             + 91 X119             + 171 X120             + 103 X121             -147 X122             + 100 X123             -155 X124             -205 X125             -185 X126             -16 X127             + 29 X128             -152 X129             + 149 X130             -243 X131             + 22 X132             -241 X133             + 19 X134             -91 X135             + 256 X136             -58 X137             -10 X138             + 183 X139             + 162 X140             -94 X141             + 2 X142             + 246 X143             -99 X144             + 244 X145             + 96 X146             -58 X147             + 235 X148             -8 X149             -231 X150             + 142 X151             -169 X152             -115 X153             + 224 X154             -61 X155             + 190 X156             -225 X157             -95 X158             -45 X159             + 132 X160             -209 X161             -25 X162             -109 X163             -187 X164             -23 X165             + 63 X166             + 52 X167             + 182 X168             + 35 X169             -29 X170             + 81 X171             + 204 X172             -44 X173             + 63 X174             -159 X175             -64 X176             + 141 X177             + 46 X178             -92 X179             -131 X180             -203 X181             + 32 X182             + 210 X183             + 192 X184             -7 X185             -115 X186             + 118 X187             -250 X188             + 54 X189             -191 X190             + 146 X191             -173 X192             -234 X193             + 19 X194             + 149 X195             + 6 X196             + 64 X197             + 183 X198             + 171 X199             -165 X200             + 137 X201             + 234 X202             -225 X203             -171 X204             -248 X205             + 125 X206             -253 X207             + 157 X208             -93 X209             -82 X210             -238 X211             + 213 X212             -67 X213             + 235 X214             + 141 X215             + 189 X216             + 103 X217             -5 X218             -79 X219             + 139 X220             -214 X221             + 49 X222             -52 X223             -184 X224             -196 X225             + 79 X226             -196 X227             + 131 X228             -1 X229             + 238 X230             -52 X231             -128 X232             + 208 X233             -14 X234             + 210 X235             + 224 X236             -153 X237             + 220 X238             + 117 X239             + 263 X240             + 121 X241             -139 X242             + 213 X243             -210 X244             + 79 X245             + 90 X246             -39 X247             -82 X248             + 68 X249             + 145 X250             + 39 X251             + 117 Y0               -69 Y1               -31 Y2               + 196 Y3               + 244 Y4               -216 Y5               -263 Y6               -169 Y7               -235 Y8               -43 Y9               + 42 Y10              -100 Y11              -98 Y12              -235 Y13              + 92 Y14              -138 Y15              + 121 Y16              + 49 Y17              -39 Y18              -160 Y19              -94 Y20              + 85 Y21              -211 Y22              + 205 Y23              -100 Y24              -139 Y25              -98 Y26              -200 Y27              + 192 Y28              + 29 Y29              + 102 Y30              -235 Y31              -58 Y32              + 53 Y33              -57 Y34              -77 Y35              + 101 Y36              + 189 Y37              + 17 Y38              + 129 Y39              -117 Y40              -205 Y41              + 12 Y42              + 48 Y43              + 69 Y44              -160 Y45              -108 Y46              + 173 Y47              -129 Y48              + 116 Y49              -251 Y50              + 40 Y51              -63 Y52              + 47 Y53              + 227 Y54              -180 Y55              + 171 Y56              -135 Y57              -117 Y58              -181 Y59              -123 Y60              -32 Y61              + 93 Y62              + 82 Y63              -243 Y64              -228 Y65              -259 Y66              + 121 Y67              + 225 Y68              -260 Y69              + 233 Y70              -156 Y71              + 45 Y72              -19 Y73              + 155 Y74              -150 Y75              -197 Y76              -217 Y77              + 5 Y78              -62 Y79              -119 Y80              + 17 Y81              -40 Y82              + 81 Y83              -200 Y84              -76 Y85              + 164 Y86              -46 Y87              -229 Y88              + 30 Y89              + 36 Y90              -89 Y91              + 261 Y92              -135 Y93              -24 Y94              + 0 Y95              -100 Y96              -20 Y97              -142 Y98              + 107 Y99              + 230 Y100             + 73 Y101             + 214 Y102             + 11 Y103             -210 Y104             -176 Y105             -157 Y106             -144 Y107             + 116 Y108             + 112 Y109             -224 Y110             + 260 Y111             -135 Y112             + 0 Y113             -203 Y114             -71 Y115             + 187 Y116             + 224 Y117             + 146 Y118             -60 Y119             + 236 Y120             + 164 Y121             + 115 Y122             + 233 Y123             + 11 Y124             -173 Y125             + 216 Y126             -107 Y127             -211 Y128             -190 Y129             -263 Y130             -245 Y131             -135 Y132             -67 Y133             -252 Y134             -82 Y135             + 21 Y136             -145 Y137             -244 Y138             + 119 Y139             + 230 Y140             -204 Y141             + 116 Y142             -169 Y143             -222 Y144             -105 Y145             -258 Y146             + 228 Y147             + 101 Y148             -130 Y149             -96 Y150             + 74 Y151             + 16 Y152             + 1 Y153             -238 Y154             -237 Y155             -190 Y156             + 241 Y157             + 166 Y158             + 109 Y159             + 33 Y160             + 166 Y161             -154 Y162             + 161 Y163             + 81 Y164             -142 Y165             + 61 Y166             + 84 Y167             -24 Y168             + 81 Y169             -60 Y170             + 188 Y171             -141 Y172             + 38 Y173             + 1 Y174             -100 Y175             + 196 Y176             + 253 Y177             + 110 Y178             + 33 Y179             -141 Y180             -4 Y181             + 89 Y182             -142 Y183             -20 Y184             + 115 Y185             + 130 Y186             + 53 Y187             -189 Y188             + 32 Y189             -102 Y190             + 108 Y191             + 180 Y192             + 254 Y193             + 5 Y194             -2 Y195             -152 Y196             + 49 Y197             -182 Y198             -194 Y199             -134 Y200             -260 Y201             + 257 Y202             + 234 Y203             + 41 Y204             -6 Y205             + 116 Y206             + 219 Y207             -17 Y208             + 208 Y209             + 235 Y210             -175 Y211             + 186 Y212             + 60 Y213             -54 Y214             -98 Y215             + 157 Y216             -188 Y217             -62 Y218             + 232 Y219             -173 Y220             -182 Y221             + 76 Y222             -257 Y223             -192 Y224             + 63 Y225             + 4 Y226             -81 Y227             -152 Y228             + 86 Y229             -12 Y230             + 223 Y231             + 89 Y232             -19 Y233             -88 Y234             + 113 Y235             + 239 Y236             + 10 Y237             + 68 Y238             + 204 Y239             -46 Y240             -242 Y241             -235 Y242             -123 Y243             -199 Y244             -26 Y245             + 42 Y246             + 221 Y247             -231 Y248             + 243 Y249             -92 Y250             -141 Y251    
Subject To
 A0:   X0 + X1 + X2 + X3 + X4 + X5 + X6 + X7 + X8 + X9 + X10 + X11 + X12 + X13
       + X14 + X15 + X16 + X17 + X18 + X19 + X20  = 24
 A1:   X21 + X22 + X23 + X24 + X25 + X26 + X27 + X28 + X29 + X30 + X31 + X32
       + X33 + X34 + X35 + X36 + X37 + X38 + X39 + X40 + X41  = 19
 A2:   X42 + X43 + X44 + X45 + X46 + X47 + X48 + X49 + X50 + X51 + X52 + X53
       + X54 + X55 + X56 + X57 + X58 + X59 + X60 + X61 + X62  = 31
 A3:   X63 + X64 + X65 + X66 + X67 + X68 + X69 + X70 + X71 + X72 + X73 + X74
       + X75 + X76 + X77 + X78 + X79 + X80 + X81 + X82 + X83  = 30
 A4:   X84 + X85 + X86 + X87 + X88 + X89 + X90 + X91 + X92 + X93 + X94 + X95
       + X96 + X97 + X98 + X99 + X100 + X101 + X102 + X103 + X104  = 26
 A5:   X105 + X106 + X107 + X108 + X109 + X110 + X111 + X112 + X113 + X114
       + X115 + X116 + X117 + X118 + X119 + X120 + X121 + X122 + X123 + X124
       + X125  = 14
 A6:   X126 + X127 + X128 + X129 + X130 + X131 + X132 + X133 + X134 + X135
       + X136 + X137 + X138 + X139 + X140 + X141 + X142 + X143 + X144 + X145
       + X146  = 23
 A7:   X147 + X148 + X149 + X150 + X151 + X152 + X153 + X154 + X155 + X156
       + X157 + X158 + X159 + X160 + X161 + X162 + X163 + X164 + X165 + X166
       + X167  = 20
 A8:   X168 + X169 + X170 + X171 + X172 + X173 + X174 + X175 + X176 + X177
       + X178 + X179 + X180 + X181 + X182 + X183 + X184 + X185 + X186 + X187
       + X188  = 63
 A9:   X189 + X190 + X191 + X192 + X193 + X194 + X195 + X196 + X197 + X198
       + X199 + X200 + X201 + X202 + X203 + X204 + X205 + X206 + X207 + X208
       + X209  = 13
 A10:  X210 + X211 + X212 + X213 + X214 + X215 + X216 + X217 + X218 + X219
       + X220 + X221 + X222 + X223 + X224 + X225 + X226 + X227 + X228 + X229
       + X230  = 32
 A11:  X231 + X232 + X233 + X234 + X235 + X236 + X237 + X238 + X239 + X240
       + X241 + X242 + X243 + X244 + X245 + X246 + X247 + X248 + X249 + X250
       + X251  = 25
 B0:   X0 + X21 + X42 + X63 + X84 + X105 + X126 + X147 + X168 + X189 + X210
       + X231  = 2
 B1:   X1 + X22 + X43 + X64 + X85 + X106 + X127 + X148 + X169 + X190 + X211
       + X232  = 8
 B2:   X2 + X23 + X44 + X65 + X86 + X107 + X128 + X149 + X170 + X191 + X212
       + X233  = 2
 B3:   X3 + X24 + X45 + X66 + X87 + X108 + X129 + X150 + X171 + X192 + X213
       + X234  = 3
 B4:   X4 + X25 + X46 + X67 + X88 + X109 + X130 + X151 + X172 + X193 + X214
       + X235  = 19
 B5:   X5 + X26 + X47 + X68 + X89 + X110 + X131 + X152 + X173 + X194 + X215
       + X236  = 5
 B6:   X6 + X27 + X48 + X69 + X90 + X111 + X132 + X153 + X174 + X195 + X216
       + X237  = 15
 B7:   X7 + X28 + X49 + X70 + X91 + X112 + X133 + X154 + X175 + X196 + X217
       + X238  = 38
 B8:   X8 + X29 + X50 + X71 + X92 + X113 + X134 + X155 + X176 + X197 + X218
       + X239  = 32
 B9:   X9 + X30 + X51 + X72 + X93 + X114 + X135 + X156 + X177 + X198 + X219
       + X240  = 9
 B10:  X10 + X31 + X52 + X73 + X94 + X115 + X136 + X157 + X178 + X199 + X220
       + X241  = 3
 B11:  X11 + X32 + X53 + X74 + X95 + X116 + X137 + X158 + X179 + X200 + X221
       + X242  = 21
 B12:  X12 + X33 + X54 + X75 + X96 + X117 + X138 + X159 + X180 + X201 + X222
       + X243  = 2
 B13:  X13 + X34 + X55 + X76 + X97 + X118 + X139 + X160 + X181 + X202 + X223
       + X244  = 29
 B14:  X14 + X35 + X56 + X77 + X98 + X119 + X140 + X161 + X182 + X203 + X224
       + X245  = 5
 B15:  X15 + X36 + X57 + X78 + X99 + X120 + X141 + X162 + X183 + X204 + X225
       + X246  = 50
 B16:  X16 + X37 + X58 + X79 + X100 + X121 + X142 + X163 + X184 + X205 + X226
       + X247  = 9
 B17:  X17 + X38 + X59 + X80 + X101 + X122 + X143 + X164 + X185 + X206 + X227
       + X248  = 7
 B18:  X18 + X39 + X60 + X81 + X102 + X123 + X144 + X165 + X186 + X207 + X228
       + X249  = 27
 B19:  X19 + X40 + X61 + X82 + X103 + X124 + X145 + X166 + X187 + X208 + X229
       + X250  = 7
 B20:  X20 + X41 + X62 + X83 + X104 + X125 + X146 + X167 + X188 + X209 + X230
       + X251  = 27
 G0:   X0 - 2 Y0 <= 0
 G1:   X1 - 8 Y1 <= 0
 G2:   X2 - 2 Y2 <= 0
 G3:   X3 - 3 Y3 <= 0
 G4:   X4 - 19 Y4 <= 0
 G5:   X5 - 5 Y5 <= 0
 G6:   X6 - 15 Y6 <= 0
 G7:   X7 - 24 Y7 <= 0
 G8:   X8 - 24 Y8 <= 0
 G9:   X9 - 9 Y9 <= 0
 G10:  X10 - 3 Y10 <= 0
 G11:  X11 - 21 Y11 <= 0
 G12:  X12 - 2 Y12 <= 0
 G13:  X13 - 24 Y13 <= 0
 G14:  X14 - 5 Y14 <= 0
 G15:  X15 - 24 Y15 <= 0
 G16:  X16 - 9 Y16 <= 0
 G17:  X17 - 7 Y17 <= 0
 G18:  X18 - 24 Y18 <= 0
 G19:  X19 - 7 Y19 <= 0
 G20:  X20 - 24 Y20 <= 0
 G21:  X21 - 2 Y21 <= 0
 G22:  X22 - 8 Y22 <= 0
 G23:  X23 - 2 Y23 <= 0
 G24:  X24 - 3 Y24 <= 0
 G25:  X25 - 19 Y25 <= 0
 G26:  X26 - 5 Y26 <= 0
 G27:  X27 - 15 Y27 <= 0
 G28:  X28 - 19 Y28 <= 0
 G29:  X29 - 19 Y29 <= 0
 G30:  X30 - 9 Y30 <= 0
 G31:  X31 - 3 Y31 <= 0
 G32:  X32 - 19 Y32 <= 0
 G33:  X33 - 2 Y33 <= 0
 G34:  X34 - 19 Y34 <= 0
 G35:  X35 - 5 Y35 <= 0
 G36:  X36 - 19 Y36 <= 0
 G37:  X37 - 9 Y37 <= 0
 G38:  X38 - 7 Y38 <= 0
 G39:  X39 - 19 Y39 <= 0
 G40:  X40 - 7 Y40 <= 0
 G41:  X41 - 19 Y41 <= 0
 G42:  X42 - 2 Y42 <= 0
 G43:  X43 - 8 Y43 <= 0
 G44:  X44 - 2 Y44 <= 0
 G45:  X45 - 3 Y45 <= 0
 G46:  X46 - 19 Y46 <= 0
 G47:  X47 - 5 Y47 <= 0
 G48:  X48 - 15 Y48 <= 0
 G49:  X49 - 31 Y49 <= 0
 G50:  X50 - 31 Y50 <= 0
 G51:  X51 - 9 Y51 <= 0
 G52:  X52 - 3 Y52 <= 0
 G53:  X53 - 21 Y53 <= 0
 G54:  X54 - 2 Y54 <= 0
 G55:  X55 - 29 Y55 <= 0
 G56:  X56 - 5 Y56 <= 0
 G57:  X57 - 31 Y57 <= 0
 G58:  X58 - 9 Y58 <= 0
 G59:  X59 - 7 Y59 <= 0
 G60:  X60 - 27 Y60 <= 0
 G61:  X61 - 7 Y61 <= 0
 G62:  X62 - 27 Y62 <= 0
 G63:  X63 - 2 Y63 <= 0
 G64:  X64 - 8 Y64 <= 0
 G65:  X65 - 2 Y65 <= 0
 G66:  X66 - 3 Y66 <= 0
 G67:  X67 - 19 Y67 <= 0
 G68:  X68 - 5 Y68 <= 0
 G69:  X69 - 15 Y69 <= 0
 G70:  X70 - 30 Y70 <= 0
 G71:  X71 - 30 Y71 <= 0
 G72:  X72 - 9 Y72 <= 0
 G73:  X73 - 3 Y73 <= 0
 G74:  X74 - 21 Y74 <= 0
 G75:  X75 - 2 Y75 <= 0
 G76:  X76 - 29 Y76 <= 0
 G77:  X77 - 5 Y77 <= 0
 G78:  X78 - 30 Y78 <= 0
 G79:  X79 - 9 Y79 <= 0
 G80:  X80 - 7 Y80 <= 0
 G81:  X81 - 27 Y81 <= 0
 G82:  X82 - 7 Y82 <= 0
 G83:  X83 - 27 Y83 <= 0
 G84:  X84 - 2 Y84 <= 0
 G85:  X85 - 8 Y85 <= 0
 G86:  X86 - 2 Y86 <= 0
 G87:  X87 - 3 Y87 <= 0
 G88:  X88 - 19 Y88 <= 0
 G89:  X89 - 5 Y89 <= 0
 G90:  X90 - 15 Y90 <= 0
 G91:  X91 - 26 Y91 <= 0
 G92:  X92 - 26 Y92 <= 0
 G93:  X93 - 9 Y93 <= 0
 G94:  X94 - 3 Y94 <= 0
 G95:  X95 - 21 Y95 <= 0
 G96:  X96 - 2 Y96 <= 0
 G97:  X97 - 26 Y97 <= 0
 G98:  X98 - 5 Y98 <= 0
 G99:  X99 - 26 Y99 <= 0
 G100: X100 - 9 Y100 <= 0
 G101: X101 - 7 Y101 <= 0
 G102: X102 - 26 Y102 <= 0
 G103: X103 - 7 Y103 <= 0
 G104: X104 - 26 Y104 <= 0
 G105: X105 - 2 Y105 <= 0
 G106: X106 - 8 Y106 <= 0
 G107: X107 - 2 Y107 <= 0
 G108: X108 - 3 Y108 <= 0
 G109: X109 - 14 Y109 <= 0
 G110: X110 - 5 Y110 <= 0
 G111: X111 - 14 Y111 <= 0
 G112: X112 - 14 Y112 <= 0
 G113: X113 - 14 Y113 <= 0
 G114: X114 - 9 Y114 <= 0
 G115: X115 - 3 Y115 <= 0
 G116: X116 - 14 Y116 <= 0
 G117: X117 - 2 Y117 <= 0
 G118: X118 - 14 Y118 <= 0
 G119: X119 - 5 Y119 <= 0
 G120: X120 - 14 Y120 <= 0
 G121: X121 - 9 Y121 <= 0
 G122: X122 - 7 Y122 <= 0
 G123: X123 - 14 Y123 <= 0
 G124: X124 - 7 Y124 <= 0
 G125: X125 - 14 Y125 <= 0
 G126: X126 - 2 Y126 <= 0
 G127: X127 - 8 Y127 <= 0
 G128: X128 - 2 Y128 <= 0
 G129: X129 - 3 Y129 <= 0
 G130: X130 - 19 Y130 <= 0
 G131: X131 - 5 Y131 <= 0
 G132: X132 - 15 Y132 <= 0
 G133: X133 - 23 Y133 <= 0
 G134: X134 - 23 Y134 <= 0
 G135: X135 - 9 Y135 <= 0
 G136: X136 - 3 Y136 <= 0
 G137: X137 - 21 Y137 <= 0
 G138: X138 - 2 Y138 <= 0
 G139: X139 - 23 Y139 <= 0
 G140: X140 - 5 Y140 <= 0
 G141: X141 - 23 Y141 <= 0
 G142: X142 - 9 Y142 <= 0
 G143: X143 - 7 Y143 <= 0
 G144: X144 - 23 Y144 <= 0
 G145: X145 - 7 Y145 <= 0
 G146: X146 - 23 Y146 <= 0
 G147: X147 - 2 Y147 <= 0
 G148: X148 - 8 Y148 <= 0
 G149: X149 - 2 Y149 <= 0
 G150: X150 - 3 Y150 <= 0
 G151: X151 - 19 Y151 <= 0
 G152: X152 - 5 Y152 <= 0
 G153: X153 - 15 Y153 <= 0
 G154: X154 - 20 Y154 <= 0
 G155: X155 - 20 Y155 <= 0
 G156: X156 - 9 Y156 <= 0
 G157: X157 - 3 Y157 <= 0
 G158: X158 - 20 Y158 <= 0
 G159: X159 - 2 Y159 <= 0
 G160: X160 - 20 Y160 <= 0
 G161: X161 - 5 Y161 <= 0
 G162: X162 - 20 Y162 <= 0
 G163: X163 - 9 Y163 <= 0
 G164: X164 - 7 Y164 <= 0
 G165: X165 - 20 Y165 <= 0
 G166: X166 - 7 Y166 <= 0
 G167: X167 - 20 Y167 <= 0
 G168: X168 - 2 Y168 <= 0
 G169: X169 - 8 Y169 <= 0
 G170: X170 - 2 Y170 <= 0
 G171: X171 - 3 Y171 <= 0
 G172: X172 - 19 Y172 <= 0
 G173: X173 - 5 Y173 <= 0
 G174: X174 - 15 Y174 <= 0
 G175: X175 - 38 Y175 <= 0
 G176: X176 - 32 Y176 <= 0
 G177: X177 - 9 Y177 <= 0
 G178: X178 - 3 Y178 <= 0
 G179: X179 - 21 Y179 <= 0
 G180: X180 - 2 Y180 <= 0
 G181: X181 - 29 Y181 <= 0
 G182: X182 - 5 Y182 <= 0
 G183: X183 - 50 Y183 <= 0
 G184: X184 - 9 Y184 <= 0
 G185: X185 - 7 Y185 <= 0
 G186: X186 - 27 Y186 <= 0
 G187: X187 - 7 Y187 <= 0
 G188: X188 - 27 Y188 <= 0
 G189: X189 - 2 Y189 <= 0
 G190: X190 - 8 Y190 <= 0
 G191: X191 - 2 Y191 <= 0
 G192: X192 - 3 Y192 <= 0
 G193: X193 - 13 Y193 <= 0
 G194: X194 - 5 Y194 <= 0
 G195: X195 - 13 Y195 <= 0
 G196: X196 - 13 Y196 <= 0
 G197: X197 - 13 Y197 <= 0
 G198: X198 - 9 Y198 <= 0
 G199: X199 - 3 Y199 <= 0
 G200: X200 - 13 Y200 <= 0
 G201: X201 - 2 Y201 <= 0
 G202: X202 - 13 Y202 <= 0
 G203: X203 - 5 Y203 <= 0
 G204: X204 - 13 Y204 <= 0
 G205: X205 - 9 Y205 <= 0
 G206: X206 - 7 Y206 <= 0
 G207: X207 - 13 Y207 <= 0
 G208: X208 - 7 Y208 <= 0
 G209: X209 - 13 Y209 <= 0
 G210: X210 - 2 Y210 <= 0
 G211: X211 - 8 Y211 <= 0
 G212: X212 - 2 Y212 <= 0
 G213: X213 - 3 Y213 <= 0
 G214: X214 - 19 Y214 <= 0
 G215: X215 - 5 Y215 <= 0
 G216: X216 - 15 Y216 <= 0
 G217: X217 - 32 Y217 <= 0
 G218: X218 - 32 Y218 <= 0
 G219: X219 - 9 Y219 <= 0
 G220: X220 - 3 Y220 <= 0
 G221: X221 - 21 Y221 <= 0
 G222: X222 - 2 Y222 <= 0
 G223: X223 - 29 Y223 <= 0
 G224: X224 - 5 Y224 <= 0
 G225: X225 - 32 Y225 <= 0
 G226: X226 - 9 Y226 <= 0
 G227: X227 - 7 Y227 <= 0
 G228: X228 - 27 Y228 <= 0
 G229: X229 - 7 Y229 <= 0
 G230: X230 - 27 Y230 <= 0
 G231: X231 - 2 Y231 <= 0
 G232: X232 - 8 Y232 <= 0
 G233: X233 - 2 Y233 <= 0
 G234: X234 - 3 Y234 <= 0
 G235: X235 - 19 Y235 <= 0
 G236: X236 - 5 Y236 <= 0
 G237: X237 - 15 Y237 <= 0
 G238: X238 - 25 Y238 <= 0
 G239: X239 - 25 Y239 <= 0
 G240: X240 - 9 Y240 <= 0
 G241: X241 - 3 Y241 <= 0
 G242: X242 - 21 Y242 <= 0
 G243: X243 - 2 Y243 <= 0
 G244: X244 - 25 Y244 <= 0
 G245: X245 - 5 Y245 <= 0
 G246: X246 - 25 Y246 <= 0
 G247: X247 - 9 Y247 <= 0
 G248: X248 - 7 Y248 <= 0
 G249: X249 - 25 Y249 <= 0
 G250: X250 - 7 Y250 <= 0
 G251: X251 - 25 Y251 <= 0
Bounds
 0 <= Y0 <= 1
 0 <= Y1 <= 1
 0 <= Y2 <= 1
 0 <= Y3 <= 1
 0 <= Y4 <= 1
 0 <= Y5 <= 1
 0 <= Y6 <= 1
 0 <= Y7 <= 1
 0 <= Y8 <= 1
 0 <= Y9 <= 1
 0 <= Y10 <= 1
 0 <= Y11 <= 1
 0 <= Y12 <= 1
 0 <= Y13 <= 1
 0 <= Y14 <= 1
 0 <= Y15 <= 1
 0 <= Y16 <= 1
 0 <= Y17 <= 1
 0 <= Y18 <= 1
 0 <= Y19 <= 1
 0 <= Y20 <= 1
 0 <= Y21 <= 1
 0 <= Y22 <= 1
 0 <= Y23 <= 1
 0 <= Y24 <= 1
 0 <= Y25 <= 1
 0 <= Y26 <= 1
 0 <= Y27 <= 1
 0 <= Y28 <= 1
 0 <= Y29 <= 1
 0 <= Y30 <= 1
 0 <= Y31 <= 1
 0 <= Y32 <= 1
 0 <= Y33 <= 1
 0 <= Y34 <= 1
 0 <= Y35 <= 1
 0 <= Y36 <= 1
 0 <= Y37 <= 1
 0 <= Y38 <= 1
 0 <= Y39 <= 1
 0 <= Y40 <= 1
 0 <= Y41 <= 1
 0 <= Y42 <= 1
 0 <= Y43 <= 1
 0 <= Y44 <= 1
 0 <= Y45 <= 1
 0 <= Y46 <= 1
 0 <= Y47 <= 1
 0 <= Y48 <= 1
 0 <= Y49 <= 1
 0 <= Y50 <= 1
 0 <= Y51 <= 1
 0 <= Y52 <= 1
 0 <= Y53 <= 1
 0 <= Y54 <= 1
 0 <= Y55 <= 1
 0 <= Y56 <= 1
 0 <= Y57 <= 1
 0 <= Y58 <= 1
 0 <= Y59 <= 1
 0 <= Y60 <= 1
 0 <= Y61 <= 1
 0 <= Y62 <= 1
 0 <= Y63 <= 1
 0 <= Y64 <= 1
 0 <= Y65 <= 1
 0 <= Y66 <= 1
 0 <= Y67 <= 1
 0 <= Y68 <= 1
 0 <= Y69 <= 1
 0 <= Y70 <= 1
 0 <= Y71 <= 1
 0 <= Y72 <= 1
 0 <= Y73 <= 1
 0 <= Y74 <= 1
 0 <= Y75 <= 1
 0 <= Y76 <= 1
 0 <= Y77 <= 1
 0 <= Y78 <= 1
 0 <= Y79 <= 1
 0 <= Y80 <= 1
 0 <= Y81 <= 1
 0 <= Y82 <= 1
 0 <= Y83 <= 1
 0 <= Y84 <= 1
 0 <= Y85 <= 1
 0 <= Y86 <= 1
 0 <= Y87 <= 1
 0 <= Y88 <= 1
 0 <= Y89 <= 1
 0 <= Y90 <= 1
 0 <= Y91 <= 1
 0 <= Y92 <= 1
 0 <= Y93 <= 1
 0 <= Y94 <= 1
 0 <= Y95 <= 1
 0 <= Y96 <= 1
 0 <= Y97 <= 1
 0 <= Y98 <= 1
 0 <= Y99 <= 1
 0 <= Y100 <= 1
 0 <= Y101 <= 1
 0 <= Y102 <= 1
 0 <= Y103 <= 1
 0 <= Y104 <= 1
 0 <= Y105 <= 1
 0 <= Y106 <= 1
 0 <= Y107 <= 1
 0 <= Y108 <= 1
 0 <= Y109 <= 1
 0 <= Y110 <= 1
 0 <= Y111 <= 1
 0 <= Y112 <= 1
 0 <= Y113 <= 1
 0 <= Y114 <= 1
 0 <= Y115 <= 1
 0 <= Y116 <= 1
 0 <= Y117 <= 1
 0 <= Y118 <= 1
 0 <= Y119 <= 1
 0 <= Y120 <= 1
 0 <= Y121 <= 1
 0 <= Y122 <= 1
 0 <= Y123 <= 1
 0 <= Y124 <= 1
 0 <= Y125 <= 1
 0 <= Y126 <= 1
 0 <= Y127 <= 1
 0 <= Y128 <= 1
 0 <= Y129 <= 1
 0 <= Y130 <= 1
 0 <= Y131 <= 1
 0 <= Y132 <= 1
 0 <= Y133 <= 1
 0 <= Y134 <= 1
 0 <= Y135 <= 1
 0 <= Y136 <= 1
 0 <= Y137 <= 1
 0 <= Y138 <= 1
 0 <= Y139 <= 1
 0 <= Y140 <= 1
 0 <= Y141 <= 1
 0 <= Y142 <= 1
 0 <= Y143 <= 1
 0 <= Y144 <= 1
 0 <= Y145 <= 1
 0 <= Y146 <= 1
 0 <= Y147 <= 1
 0 <= Y148 <= 1
 0 <= Y149 <= 1
 0 <= Y150 <= 1
 0 <= Y151 <= 1
 0 <= Y152 <= 1
 0 <= Y153 <= 1
 0 <= Y154 <= 1
 0 <= Y155 <= 1
 0 <= Y156 <= 1
 0 <= Y157 <= 1
 0 <= Y158 <= 1
 0 <= Y159 <= 1
 0 <= Y160 <= 1
 0 <= Y161 <= 1
 0 <= Y162 <= 1
 0 <= Y163 <= 1
 0 <= Y164 <= 1
 0 <= Y165 <= 1
 0 <= Y166 <= 1
 0 <= Y167 <= 1
 0 <= Y168 <= 1
 0 <= Y169 <= 1
 0 <= Y170 <= 1
 0 <= Y171 <= 1
 0 <= Y172 <= 1
 0 <= Y173 <= 1
 0 <= Y174 <= 1
 0 <= Y175 <= 1
 0 <= Y176 <= 1
 0 <= Y177 <= 1
 0 <= Y178 <= 1
 0 <= Y179 <= 1
 0 <= Y180 <= 1
 0 <= Y181 <= 1
 0 <= Y182 <= 1
 0 <= Y183 <= 1
 0 <= Y184 <= 1
 0 <= Y185 <= 1
 0 <= Y186 <= 1
 0 <= Y187 <= 1
 0 <= Y188 <= 1
 0 <= Y189 <= 1
 0 <= Y190 <= 1
 0 <= Y191 <= 1
 0 <= Y192 <= 1
 0 <= Y193 <= 1
 0 <= Y194 <= 1
 0 <= Y195 <= 1
 0 <= Y196 <= 1
 0 <= Y197 <= 1
 0 <= Y198 <= 1
 0 <= Y199 <= 1
 0 <= Y200 <= 1
 0 <= Y201 <= 1
 0 <= Y202 <= 1
 0 <= Y203 <= 1
 0 <= Y204 <= 1
 0 <= Y205 <= 1
 0 <= Y206 <= 1
 0 <= Y207 <= 1
 0 <= Y208 <= 1
 0 <= Y209 <= 1
 0 <= Y210 <= 1
 0 <= Y211 <= 1
 0 <= Y212 <= 1
 0 <= Y213 <= 1
 0 <= Y214 <= 1
 0 <= Y215 <= 1
 0 <= Y216 <= 1
 0 <= Y217 <= 1
 0 <= Y218 <= 1
 0 <= Y219 <= 1
 0 <= Y220 <= 1
 0 <= Y221 <= 1
 0 <= Y222 <= 1
 0 <= Y223 <= 1
 0 <= Y224 <= 1
 0 <= Y225 <= 1
 0 <= Y226 <= 1
 0 <= Y227 <= 1
 0 <= Y228 <= 1
 0 <= Y229 <= 1
 0 <= Y230 <= 1
 0 <= Y231 <= 1
 0 <= Y232 <= 1
 0 <= Y233 <= 1
 0 <= Y234 <= 1
 0 <= Y235 <= 1
 0 <= Y236 <= 1
 0 <= Y237 <= 1
 0 <= Y238 <= 1
 0 <= Y239 <= 1
 0 <= Y240 <= 1
 0 <= Y241 <= 1
 0 <= Y242 <= 1
 0 <= Y243 <= 1
 0 <= Y244 <= 1
 0 <= Y245 <= 1
 0 <= Y246 <= 1
 0 <= Y247 <= 1
 0 <= Y248 <= 1
 0 <= Y249 <= 1
 0 <= Y250 <= 1
 0 <= Y251 <= 1
Binaries
 Y0  Y1  Y2  Y3  Y4  Y5  Y6  Y7  Y8  Y9  Y10  Y11  Y12  Y13  Y14  Y15  Y16 
 Y17  Y18  Y19  Y20  Y21  Y22  Y23  Y24  Y25  Y26  Y27  Y28  Y29  Y30  Y31 
 Y32  Y33  Y34  Y35  Y36  Y37  Y38  Y39  Y40  Y41  Y42  Y43  Y44  Y45  Y46 
 Y47  Y48  Y49  Y50  Y51  Y52  Y53  Y54  Y55  Y56  Y57  Y58  Y59  Y60  Y61 
 Y62  Y63  Y64  Y65  Y66  Y67  Y68  Y69  Y70  Y71  Y72  Y73  Y74  Y75  Y76 
 Y77  Y78  Y79  Y80  Y81  Y82  Y83  Y84  Y85  Y86  Y87  Y88  Y89  Y90  Y91 
 Y92  Y93  Y94  Y95  Y96  Y97  Y98  Y99  Y100  Y101  Y102  Y103  Y104  Y105 
 Y106  Y107  Y108  Y109  Y110  Y111  Y112  Y113  Y114  Y115  Y116  Y117  Y118 
 Y119  Y120  Y121  Y122  Y123  Y124  Y125  Y126  Y127  Y128  Y129  Y130  Y131 
 Y132  Y133  Y134  Y135  Y136  Y137  Y138  Y139  Y140  Y141  Y142  Y143  Y144 
 Y145  Y146  Y147  Y148  Y149  Y150  Y151  Y152  Y153  Y154  Y155  Y156  Y157 
 Y158  Y159  Y160  Y161  Y162  Y163  Y164  Y165  Y166  Y167  Y168  Y169  Y170 
 Y171  Y172  Y173  Y174  Y175  Y176  Y177  Y178  Y179  Y180  Y181  Y182  Y183 
 Y184  Y185  Y186  Y187  Y188  Y189  Y190  Y191  Y192  Y193  Y194  Y195  Y196 
 Y197  Y198  Y199  Y200  Y201  Y202  Y203  Y204  Y205  Y206  Y207  Y208  Y209 
 Y210  Y211  Y212  Y213  Y214  Y215  Y216  Y217  Y218  Y219  Y220  Y221  Y222 
 Y223  Y224  Y225  Y226  Y227  Y228  Y229  Y230  Y231  Y232  Y233  Y234  Y235 
 Y236  Y237  Y238  Y239  Y240  Y241  Y242  Y243  Y244  Y245  Y246  Y247  Y248 
 Y249  Y250  Y251 
End
